30
Properties=species:S:1:pos:R:3 pbc="F F F"
C       -1.23546500      -1.40669400       0.02226200
C       -0.00046100      -0.72732800       0.01093300
H       -1.23701200      -2.49898900       0.03772800
C       -2.45239100      -0.72485300       0.01275500
C        0.00046300       0.72732800      -0.01093300
C        1.23371700      -1.40815700       0.01917600
C       -2.45146500       0.72793300      -0.00816400
C       -3.71010800      -1.40637400       0.02203200
C       -1.23371500       1.40815800      -0.01917600
C        1.23546700       1.40669400      -0.02226200
C        2.45145700      -0.72793600       0.00816200
H        1.23341600      -2.50045600       0.03492400
C       -3.70831100       1.41095600      -0.01921300
C       -4.89090900      -0.71059700       0.01095400
H       -3.70878100      -2.49762800       0.03745600
H       -1.23341500       2.50045600      -0.03492400
H        1.23701300       2.49898900      -0.03772900
C        2.45239300       0.72485300      -0.01275600
C        3.70831300      -1.41095600       0.01921200
H       -3.70601500       2.50215800      -0.03720300
C       -4.88997500       0.71655200      -0.01019900
H       -5.84086800      -1.24546200       0.01692100
C        3.71011000       1.40637400      -0.02203300
C        4.88997600      -0.71655200       0.01019900
H        3.70601400      -2.50215400       0.03721200
H       -5.83931200       1.25241100      -0.02248800
H        3.70878200       2.49762800      -0.03745600
C        4.89091100       0.71059700      -0.01095400
H        5.83930400      -1.25241500       0.02248600
H        5.84086900       1.24546200      -0.01692100
