####### BEGIN STRUCTURE #######
#structure_number = 1
#Z = 2
#number_of_atoms_in_molecule = 30 
#unit_cell_volume = 588.093262 cubic Angstrom
#attempted_spacegroup = 2
#attempted_wyckoff_position = 2i
#site_symmetry_group = 1
#SPGLIB_detected_spacegroup = 2
#"All distances in Angstroms and using Cartesian coordinate system"
lattice_vector     5.528801     0.000000     0.000000 
lattice_vector     1.063092     8.155478     0.000000 
lattice_vector     1.755146    -0.583208    13.042650 
atom     4.564451     2.505600     4.997590  C  
atom     4.327317     1.959118     6.275098  C  
atom     5.519908     2.998193     4.803157  H  
atom     3.614962     2.436408     3.977988  C  
atom     3.054057     1.304431     6.533354  C  
atom     5.280424     2.025556     7.311420  C  
atom     2.343707     1.781768     4.235636  C  
atom     3.846562     2.990108     2.679456  C  
atom     2.100950     1.237991     5.497031  C  
atom     2.816923     0.757948     7.810862  C  
atom     5.037667     1.481786     8.572806  C  
atom     6.236358     2.517663     7.118069  H  
atom     1.380998     1.721177     3.179310  C  
atom     2.894802     2.908751     1.696576  C  
atom     4.801931     3.481692     2.487908  H  
atom     1.145016     0.745885     5.690382  H  
atom     1.861465     0.265357     8.005294  H  
atom     3.766412     0.827142     8.830464  C  
atom     6.000376     1.542373     9.629143  C  
atom     0.425699     1.231126     3.375024  H  
atom     1.645747     2.266180     1.949885  C  
atom     3.086801     3.337172     0.712641  H  
atom     3.534811     0.273441    10.128996  C  
atom     5.735626     0.997369    10.858567  C  
atom     6.955675     2.032414     9.433422  H  
atom     0.899659     2.214587     1.156646  H  
atom     2.579443    -0.218144    10.320542  H  
atom     4.486572     0.354798    11.111876  C  
atom     6.481715     1.048967    11.651797  H  
atom     4.294574    -0.073623    12.095810  H  
atom     3.782588     5.066668     8.045060  C  
atom     4.019722     5.613152     6.767552  C  
atom     2.827131     4.574077     8.239493  H  
atom     4.732077     5.135861     9.064662  C  
atom     5.292982     6.267838     6.509296  C  
atom     3.066615     5.546712     5.731229  C  
atom     6.003333     5.790501     8.807014  C  
atom     4.500476     4.582160    10.363194  C  
atom     6.246089     6.334278     7.545619  C  
atom     5.530115     6.814320     5.231789  C  
atom     3.309372     6.090483     4.469844  C  
atom     2.110681     5.054605     5.924582  H  
atom     6.966041     5.851093     9.863340  C  
atom     5.452237     4.663518    11.346074  C  
atom     3.545108     4.090575    10.554743  H  
atom     7.202023     6.826383     7.352267  H  
atom     6.485573     7.306911     5.037356  H  
atom     4.580626     6.745128     4.212186  C  
atom     2.346663     6.029897     3.413508  C  
atom     7.921340     6.341143     9.667625  H  
atom     6.701291     5.306088    11.092766  C  
atom     5.260238     4.235097    12.330010  H  
atom     4.812227     7.298828     2.913654  C  
atom     2.611412     6.574899     2.184083  C  
atom     1.391364     5.539855     3.609228  H  
atom     7.447380     5.357682    11.886004  H  
atom     5.767596     7.790412     2.722108  H  
atom     3.860466     7.217471     1.930775  C  
atom     1.865324     6.523302     1.390853  H  
atom     4.052465     7.645891     0.946841  H  
#######  END  STRUCTURE #######

####### BEGIN STRUCTURE #######
#structure_number = 2
#Z = 2
#number_of_atoms_in_molecule = 30 
#unit_cell_volume = 594.235535 cubic Angstrom
#attempted_spacegroup = 2
#attempted_wyckoff_position = 2i
#site_symmetry_group = 1
#SPGLIB_detected_spacegroup = 2
#"All distances in Angstroms and using Cartesian coordinate system"
lattice_vector     5.977179     0.000000     0.000000 
lattice_vector    -1.702762     7.240538     0.000000 
lattice_vector     0.683941    -1.634670    13.730665 
atom     2.005594    -0.559782    10.566079  C  
atom     2.824884     0.491893    10.108211  C  
atom     2.271518    -1.587225    10.307244  H  
atom     0.866948    -0.325542    11.337132  C  
atom     2.469134     1.859905    10.452428  C  
atom     3.976372     0.264472     9.327729  C  
atom     0.512165     1.040639    11.681668  C  
atom     0.028892    -1.386666    11.804129  C  
atom     1.317647     2.087326    11.232909  C  
atom     3.288425     2.911579     9.994555  C  
atom     4.781845     1.311153     8.878971  C  
atom     4.243447    -0.762581     9.068502  H  
atom    -0.659498     1.262769    12.471710  C  
atom    -1.085070    -1.127138    12.559280  C  
atom     0.296841    -2.412169    11.544081  H  
atom     1.050571     3.114378    11.492132  H  
atom     3.022500     3.939023    10.253389  H  
atom     4.427070     2.677340     9.223501  C  
atom     5.953516     1.089029     8.088924  C  
atom    -0.925961     2.289640    12.727805  H  
atom    -1.433906     0.214991    12.897223  C  
atom    -1.713871    -1.947409    12.906127  H  
atom     5.265126     3.738464     8.756505  C  
atom     6.727923     2.136807     7.663414  C  
atom     6.219982     0.062160     7.832840  H  
atom    -2.325807     0.401824    13.495674  H  
atom     4.997176     4.763966     9.016557  H  
atom     6.379088     3.478936     8.001355  C  
atom     7.619817     1.949967     7.064964  H  
atom     7.007890     4.299206     7.654510  H  
atom     2.952764     6.165649     3.164585  C  
atom     2.133473     5.113975     3.622455  C  
atom     2.686839     7.193094     3.423420  H  
atom     4.091410     5.931409     2.393532  C  
atom     2.489224     3.745962     3.278238  C  
atom     0.981986     5.341396     4.402936  C  
atom     4.446193     4.565229     2.048996  C  
atom     4.929466     6.992535     1.926536  C  
atom     3.640711     3.518542     2.497756  C  
atom     1.669933     2.694288     3.736109  C  
atom     0.176513     4.294715     4.851694  C  
atom     0.714910     6.368449     4.662162  H  
atom     5.617855     4.343099     1.258954  C  
atom     6.043427     6.733006     1.171384  C  
atom     4.661517     8.018037     2.186583  H  
atom     3.907787     2.491490     2.238532  H  
atom     1.935858     1.666846     3.477274  H  
atom     0.531288     2.928528     4.507163  C  
atom    -0.995159     4.516840     5.641741  C  
atom     5.884318     3.316228     1.002859  H  
atom     6.392264     5.390877     0.833441  C  
atom     6.672230     7.553277     0.824537  H  
atom    -0.306769     1.867404     4.974159  C  
atom    -1.769566     3.469061     6.067251  C  
atom    -1.261624     5.543708     5.897825  H  
atom     7.284163     5.204044     0.234990  H  
atom    -0.038818     0.841903     4.714109  H  
atom    -1.420731     2.126931     5.729309  C  
atom    -2.661460     3.655901     6.665701  H  
atom    -2.049532     1.306661     6.076154  H  
#######  END  STRUCTURE #######

####### BEGIN STRUCTURE #######
#structure_number = 3
#Z = 2
#number_of_atoms_in_molecule = 30 
#unit_cell_volume = 656.902649 cubic Angstrom
#attempted_spacegroup = 3
#attempted_wyckoff_position = 2e
#site_symmetry_group = 1
#SPGLIB_detected_spacegroup = 3
#"All distances in Angstroms and using Cartesian coordinate system"
lattice_vector    10.558281     0.000000     0.000000 
lattice_vector     0.000000     3.430800     0.000000 
lattice_vector    -3.697750     0.000000    18.134787 
atom     3.157975     3.276953    11.858427  C  
atom     3.741541     2.628085    12.965371  C  
atom     3.802840     3.613151    11.043276  H  
atom     1.783842     3.502451    11.775888  C  
atom     2.881980     2.181876    14.050986  C  
atom     5.128975     2.397204    13.057624  C  
atom     0.925287     3.056008    12.859680  C  
atom     1.183658     4.161930    10.657285  C  
atom     1.494545     2.412757    13.958731  C  
atom     3.465545     1.533008    15.157927  C  
atom     5.698227     1.753959    14.156670  C  
atom     5.774806     2.732710    12.242943  H  
atom    -0.481226     3.296756    12.759353  C  
atom    -0.169751     4.371433    10.603315  C  
atom     1.830202     4.496804     9.844316  H  
atom     0.848715     2.077252    14.773411  H  
atom     2.820680     1.196812    15.973078  H  
atom     4.839680     1.307511    15.240469  C  
atom     7.104748     1.513206    14.257004  C  
atom    -1.124569     2.962855    13.575236  H  
atom    -1.013068     3.933389    11.668273  C  
atom    -0.611032     4.876883     9.744054  H  
atom     5.439862     0.648032    16.359072  C  
atom     7.636588     0.876572    15.348080  C  
atom     7.748083     1.847099    13.441115  H  
atom    -2.086856     4.112316    11.609077  H  
atom     4.793317     0.313158    17.172037  H  
atom     6.793271     0.438528    16.413038  C  
atom     8.710371     0.697652    15.407269  H  
atom     7.234551    -0.066921    17.272301  H  
atom     3.702556     3.276953     6.276360  C  
atom     3.118990     2.628085     5.169415  C  
atom     3.057691     3.613151     7.091511  H  
atom     5.076689     3.502451     6.358898  C  
atom     3.978551     2.181876     4.083801  C  
atom     1.731556     2.397204     5.077163  C  
atom     5.935244     3.056008     5.275108  C  
atom     5.676872     4.161930     7.477504  C  
atom     5.365986     2.412757     4.176055  C  
atom     3.394986     1.533008     2.976860  C  
atom     1.162303     1.753959     3.978117  C  
atom     1.085725     2.732710     5.891844  H  
atom     7.341757     3.296756     5.375436  C  
atom     7.030281     4.371433     7.531472  C  
atom     5.030329     4.496804     8.290471  H  
atom     6.011816     2.077252     3.361376  H  
atom     4.039851     1.196812     2.161709  H  
atom     2.020851     1.307511     2.894319  C  
atom    -0.244217     1.513206     3.877783  C  
atom     7.985100     2.962855     4.559550  H  
atom     7.873599     3.933389     6.466513  C  
atom     7.471564     4.876883     8.390733  H  
atom     1.420668     0.648032     1.775714  C  
atom    -0.776057     0.876572     2.786707  C  
atom    -0.887552     1.847099     4.693671  H  
atom     8.947388     4.112316     6.525709  H  
atom     2.067214     0.313158     0.962749  H  
atom     0.067260     0.438528     1.721748  C  
atom    -1.849840     0.697652     2.727517  H  
atom    -0.374020    -0.066921     0.862487  H  
#######  END  STRUCTURE #######

####### BEGIN STRUCTURE #######
#structure_number = 4
#Z = 2
#number_of_atoms_in_molecule = 30 
#unit_cell_volume = 631.606018 cubic Angstrom
#attempted_spacegroup = 3
#attempted_wyckoff_position = 2e
#site_symmetry_group = 1
#SPGLIB_detected_spacegroup = 3
#"All distances in Angstroms and using Cartesian coordinate system"
lattice_vector    14.206001     0.000000     0.000000 
lattice_vector     0.000000     7.125069     0.000000 
lattice_vector    -0.641690     0.000000     6.240011 
atom     8.472497     5.388700     1.511559  C  
atom     9.684171     6.108691     1.492757  C  
atom     8.507322     4.296995     1.529449  H  
atom     7.233551     6.029711     1.506429  C  
atom     9.636647     7.562519     1.467669  C  
atom    10.940318     5.469261     1.496538  C  
atom     7.186095     7.481672     1.482292  C  
atom     5.999234     5.306806     1.523294  C  
atom     8.380500     8.201950     1.463888  C  
atom    10.848325     8.282510     1.448866  C  
atom    12.134715     6.189535     1.478131  C  
atom    10.976395     4.377596     1.514703  H  
atom     5.907205     8.122535     1.475810  C  
atom     4.795923     5.962942     1.516387  C  
atom     6.036900     4.216238     1.541125  H  
atom     8.344424     9.293614     1.445723  H  
atom    10.813495     9.374214     1.430976  H  
atom    12.087272     7.641500     1.453996  C  
atom    13.413613     5.548675     1.484615  C  
atom     5.873150     9.213163     1.455396  H  
atom     4.749326     7.389280     1.492073  C  
atom     3.864303     5.396828     1.528130  H  
atom    13.321586     8.364405     1.437130  C  
atom    14.571494     6.281930     1.468352  C  
atom    13.447667     4.458049     1.505039  H  
atom     3.782660     7.893273     1.483190  H  
atom    13.283917     9.454972     1.419301  H  
atom    14.524895     7.708268     1.444039  C  
atom    15.538149     5.777933     1.477234  H  
atom    15.456514     8.274382     1.432296  H  
atom     5.091816     5.388700     4.728451  C  
atom     3.880141     6.108691     4.747253  C  
atom     5.056989     4.296995     4.710562  H  
atom     6.330761     6.029711     4.733582  C  
atom     3.927665     7.562519     4.772341  C  
atom     2.623993     5.469261     4.743473  C  
atom     6.378217     7.481672     4.757719  C  
atom     7.565077     5.306806     4.716716  C  
atom     5.183812     8.201950     4.776123  C  
atom     2.715988     8.282510     4.791144  C  
atom     1.429597     6.189535     4.761879  C  
atom     2.587918     4.377596     4.725308  H  
atom     7.657107     8.122535     4.764200  C  
atom     8.768389     5.962942     4.723624  C  
atom     7.527411     4.216238     4.698885  H  
atom     5.219888     9.293614     4.794288  H  
atom     2.750817     9.374214     4.809034  H  
atom     1.477041     7.641500     4.786015  C  
atom     0.150699     5.548675     4.755396  C  
atom     7.691162     9.213163     4.784615  H  
atom     8.814984     7.389280     4.747937  C  
atom     9.700008     5.396828     4.711881  H  
atom     0.242727     8.364405     4.802880  C  
atom    -1.007180     6.281930     4.771658  C  
atom     0.116646     4.458049     4.734972  H  
atom     9.781653     7.893273     4.756821  H  
atom     0.280394     9.454972     4.820710  H  
atom    -0.960583     7.708268     4.795972  C  
atom    -1.973838     5.777933     4.762777  H  
atom    -1.892203     8.274382     4.807715  H  
#######  END  STRUCTURE #######

####### BEGIN STRUCTURE #######
#structure_number = 5
#Z = 2
#number_of_atoms_in_molecule = 30 
#unit_cell_volume = 666.333191 cubic Angstrom
#attempted_spacegroup = 4
#attempted_wyckoff_position = 2a
#site_symmetry_group = 1
#SPGLIB_detected_spacegroup = 4
#"All distances in Angstroms and using Cartesian coordinate system"
lattice_vector     6.764175     0.000000     0.000000 
lattice_vector     0.000000    18.440132     0.000000 
lattice_vector    -1.334592     0.000000     5.342107 
atom     3.750071     3.713508     4.705021  C  
atom     4.137956     2.624778     3.898105  C  
atom     3.019110     4.425567     4.315125  H  
atom     4.273385     3.907256     5.983501  C  
atom     5.112423     1.677780     4.417828  C  
atom     3.615306     2.422003     2.604849  C  
atom     5.245909     2.960978     6.502905  C  
atom     3.886874     5.010418     6.808155  C  
atom     5.635073     1.880554     5.711085  C  
atom     5.500309     0.589050     3.610911  C  
atom     4.004469     1.341588     1.813035  C  
atom     2.884063     3.133260     2.214000  H  
atom     5.773359     3.175702     7.815152  C  
atom     4.418552     5.176899     8.060401  C  
atom     3.156471     5.720306     6.416178  H  
atom     6.366317     1.169299     6.101934  H  
atom     6.231269    -0.123008     4.000808  H  
atom     4.976995     0.395302     2.332431  C  
atom     3.477021     1.126855     0.500780  C  
atom     6.505454     2.465333     8.203052  H  
atom     5.374368     4.247633     8.570388  C  
atom     4.114155     6.023931     8.675557  H  
atom     5.363508    -0.707860     1.507778  C  
atom     3.876013     0.054926    -0.254453  C  
atom     2.744921     1.837219     0.112889  H  
atom     5.788865     4.398806     9.567319  H  
atom     6.093908    -1.417749     1.899755  H  
atom     4.831825    -0.874342     0.255532  C  
atom     3.461512    -0.096241    -1.251380  H  
atom     5.136226    -1.721373    -0.359624  H  
atom     1.679512    12.933573     0.637086  C  
atom     1.291627    11.844847     1.444003  C  
atom     2.410472    13.645635     1.026982  H  
atom     1.156198    13.127324    -0.641394  C  
atom     0.317160    10.897848     0.924279  C  
atom     1.814277    11.642068     2.737258  C  
atom     0.183674    12.181046    -1.160798  C  
atom     1.542710    14.230486    -1.466047  C  
atom    -0.205490    11.100622    -0.368978  C  
atom    -0.070725     9.809118     1.731196  C  
atom     1.425114    10.561654     3.529073  C  
atom     2.545520    12.353327     3.128108  H  
atom    -0.343777    12.395770    -2.473045  C  
atom     1.011030    14.396967    -2.718294  C  
atom     2.273113    14.940375    -1.074071  H  
atom    -0.936734    10.389364    -0.759827  H  
atom    -0.801686     9.097060     1.341300  H  
atom     0.452589     9.615368     3.009676  C  
atom     1.952562    10.346923     4.841327  C  
atom    -1.075870    11.685402    -2.860945  H  
atom     0.055216    13.467700    -3.228281  C  
atom     1.315428    15.243999    -3.333450  H  
atom     0.066076     8.512207     3.834330  C  
atom     1.553571     9.274991     5.596560  C  
atom     2.684662    11.057286     5.229218  H  
atom    -0.359282    13.618874    -4.225212  H  
atom    -0.664325     7.802319     3.442352  H  
atom     0.597758     8.345726     5.086576  C  
atom     1.968071     9.123827     6.593487  H  
atom     0.293358     7.498694     5.701731  H  
#######  END  STRUCTURE #######

####### BEGIN STRUCTURE #######
#structure_number = 6
#Z = 2
#number_of_atoms_in_molecule = 30 
#unit_cell_volume = 620.676208 cubic Angstrom
#attempted_spacegroup = 4
#attempted_wyckoff_position = 2a
#site_symmetry_group = 1
#SPGLIB_detected_spacegroup = 4
#"All distances in Angstroms and using Cartesian coordinate system"
lattice_vector    14.904684     0.000000     0.000000 
lattice_vector     0.000000    12.946642     0.000000 
lattice_vector     0.070213     0.000000     3.216512 
atom    12.087996     7.569598     0.554821  C  
atom    13.405206     8.069091     0.506127  C  
atom    11.908168     6.599785     1.024368  H  
atom    11.010885     8.276641     0.020191  C  
atom    13.643764     9.360168    -0.120540  C  
atom    14.499505     7.360959     1.042637  C  
atom    11.249012     9.566463    -0.604855  C  
atom     9.671447     7.776212     0.063459  C  
atom    12.549463    10.068302    -0.657050  C  
atom    14.960968     9.859663    -0.169234  C  
atom    15.799949     7.862797     0.990439  C  
atom    14.320851     6.391163     1.512683  H  
atom    10.133325    10.277212    -1.149267  C  
atom     8.632080     8.492009    -0.471217  C  
atom     9.494593     6.807071     0.533104  H  
atom    12.728116    11.038097    -1.127095  H  
atom    15.140800    10.829477    -0.638782  H  
atom    16.038084     9.152621     0.365396  C  
atom    16.915644     7.152049     1.534853  C  
atom    10.314072    11.244875    -1.620447  H  
atom     8.866116     9.758804    -1.085762  C  
atom     7.617302     8.095595    -0.431061  H  
atom    17.377525     9.653050     0.322128  C  
atom    18.182850     7.670458     1.471349  C  
atom    16.734890     6.184393     2.006039  H  
atom     8.027178    10.311762    -1.508802  H  
atom    17.554371    10.622192    -0.147517  H  
atom    18.416887     8.937250     0.856804  C  
atom    19.021780     7.117496     1.894387  H  
atom    19.431662     9.333666     0.816647  H  
atom     2.886900     1.096275     2.661691  C  
atom     1.569692     1.595772     2.710385  C  
atom     3.066729     0.126464     2.192144  H  
atom     3.964010     1.803320     3.196321  C  
atom     1.331133     2.886847     3.337051  C  
atom     0.475391     0.887639     2.173875  C  
atom     3.725885     3.093139     3.821366  C  
atom     5.303452     1.302891     3.153053  C  
atom     2.425434     3.594980     3.873562  C  
atom     0.013927     3.386343     3.385746  C  
atom    -0.825052     1.389476     2.226073  C  
atom     0.654044    -0.082158     1.703829  H  
atom     4.841572     3.803892     4.365779  C  
atom     6.342815     2.018689     3.687729  C  
atom     5.480303     0.333749     2.683408  H  
atom     2.246782     4.564776     4.343607  H  
atom    -0.165903     4.356157     3.855293  H  
atom    -1.063186     2.679299     2.851116  C  
atom    -1.940746     0.678728     1.681659  C  
atom     4.660826     4.771553     4.836958  H  
atom     6.108781     3.285482     4.302274  C  
atom     7.357595     1.622275     3.647573  H  
atom    -2.402628     3.179731     2.894384  C  
atom    -3.207955     1.197137     1.745163  C  
atom    -1.759996    -0.288928     1.210472  H  
atom     6.947719     3.838441     4.725314  H  
atom    -2.579476     4.148869     3.364028  H  
atom    -3.441990     2.463929     2.359708  C  
atom    -4.046883     0.644175     1.322125  H  
atom    -4.456767     2.860345     2.399864  H  
#######  END  STRUCTURE #######

####### BEGIN STRUCTURE #######
#structure_number = 7
#Z = 2
#number_of_atoms_in_molecule = 30 
#unit_cell_volume = 620.657715 cubic Angstrom
#attempted_spacegroup = 5
#attempted_wyckoff_position = 2a
#site_symmetry_group = 2
#SPGLIB_detected_spacegroup = 12
#"All distances in Angstroms and using Cartesian coordinate system"
lattice_vector     6.382384     0.000000     0.000000 
lattice_vector     0.000000     7.359080     0.000000 
lattice_vector    -0.925809     0.000000    13.214347 
atom     6.086032     2.819596    12.152273  C  
atom     5.456574     3.499694    13.214345  C  
atom     6.086473     1.727299    12.151811  H  
atom     6.707353     3.500627    11.105439  C  
atom     5.456574     4.954349    13.214347  C  
atom     4.827116     2.819596    14.276420  C  
atom     6.707355     4.953415    11.105435  C  
atom     7.350496     2.818357    10.025098  C  
atom     6.086032     5.634448    12.152272  C  
atom     4.827116     5.634448    14.276420  C  
atom     4.205796     3.500627    15.323255  C  
atom     4.826676     1.727299    14.276884  H  
atom     7.350496     5.635686    10.025098  C  
atom     7.954905     3.513447     9.010210  C  
atom     7.350677     1.727131    10.027314  H  
atom     6.086472     6.726745    12.151810  H  
atom     4.826677     6.726745    14.276884  H  
atom     4.205793     4.953415    15.323257  C  
atom     3.562654     2.818357    16.403593  C  
atom     7.350673     6.726914    10.027311  H  
atom     7.954906     4.940596     9.010210  C  
atom     8.442820     2.978083     8.195488  H  
atom     3.562654     5.635686    16.403593  C  
atom     2.958244     3.513447    17.418484  C  
atom     3.562472     1.727131    16.401377  H  
atom     8.442824     5.475959     8.195484  H  
atom     3.562476     6.726914    16.401382  H  
atom     2.958243     4.940596    17.418484  C  
atom     2.470330     2.978083    18.233208  H  
atom     2.470326     5.475959    18.233210  H  
atom     2.894841    -0.859944    12.152273  C  
atom     2.265382    -0.179847    13.214345  C  
atom     2.895281    -1.952241    12.151811  H  
atom     3.516161    -0.178913    11.105439  C  
atom     2.265382     1.274810    13.214347  C  
atom     1.635924    -0.859944    14.276420  C  
atom     3.516164     1.273875    11.105435  C  
atom     4.159303    -0.861184    10.025098  C  
atom     2.894841     1.954908    12.152272  C  
atom     1.635924     1.954908    14.276420  C  
atom     1.014605    -0.178913    15.323255  C  
atom     1.635484    -1.952241    14.276884  H  
atom     4.159304     1.956147    10.025098  C  
atom     4.763713    -0.166093     9.010210  C  
atom     4.159484    -1.952410    10.027314  H  
atom     2.895279     3.047205    12.151810  H  
atom     1.635485     3.047205    14.276884  H  
atom     1.014601     1.273875    15.323257  C  
atom     0.371462    -0.861184    16.403593  C  
atom     4.159481     3.047375    10.027311  H  
atom     4.763714     1.261057     9.010210  C  
atom     5.251627    -0.701457     8.195488  H  
atom     0.371462     1.956147    16.403593  C  
atom    -0.232948    -0.166093    17.418484  C  
atom     0.371280    -1.952410    16.401377  H  
atom     5.251631     1.796418     8.195484  H  
atom     0.371284     3.047375    16.401382  H  
atom    -0.232949     1.261057    17.418484  C  
atom    -0.720863    -0.701457    18.233208  H  
atom    -0.720866     1.796418    18.233210  H  
#######  END  STRUCTURE #######

####### BEGIN STRUCTURE #######
#structure_number = 8
#Z = 2
#number_of_atoms_in_molecule = 30 
#unit_cell_volume = 560.692200 cubic Angstrom
#attempted_spacegroup = 5
#attempted_wyckoff_position = 2b
#site_symmetry_group = 2
#SPGLIB_detected_spacegroup = 12
#"All distances in Angstroms and using Cartesian coordinate system"
lattice_vector     4.314484     0.000000     0.000000 
lattice_vector     0.000000     9.876161     0.000000 
lattice_vector     1.219349     0.000000    13.158533 
atom     0.840182     4.206855     5.366385  C  
atom     0.609675     4.886952     6.579268  C  
atom     0.840437     3.114557     5.365800  H  
atom     1.068221     4.887886     4.170602  C  
atom     0.609675     6.341609     6.579268  C  
atom     0.379167     4.206855     7.792151  C  
atom     1.068223     6.340673     4.170596  C  
atom     1.305380     4.205616     2.935884  C  
atom     0.840182     7.021707     5.366385  C  
atom     0.379168     7.021707     7.792151  C  
atom     0.151128     4.887886     8.987933  C  
atom     0.378912     3.114557     7.792736  H  
atom     1.305380     7.022946     2.935884  C  
atom     1.528389     4.900706     1.775894  C  
atom     1.306305     3.114389     2.937907  H  
atom     0.840437     8.114002     5.365799  H  
atom     0.378912     8.114002     7.792737  H  
atom     0.151127     6.340673     8.987941  C  
atom    -0.086031     4.205616    10.222653  C  
atom     1.306300     8.114174     2.937905  H  
atom     1.528389     6.327856     1.775893  C  
atom     1.709965     4.365341     0.843765  H  
atom    -0.086031     7.022946    10.222651  C  
atom    -0.309040     4.900706    11.382641  C  
atom    -0.086955     3.114389    10.220629  H  
atom     1.709966     6.863217     0.843761  H  
atom    -0.086950     8.114174    10.220632  H  
atom    -0.309040     6.327856    11.382643  C  
atom    -0.490616     4.365341    12.314771  H  
atom    -0.490617     6.863217    12.314775  H  
atom     2.997424    -0.731225     5.366384  C  
atom     2.766917    -0.051128     6.579267  C  
atom     2.997680    -1.823523     5.365798  H  
atom     3.225463    -0.050194     4.170600  C  
atom     2.766917     1.403528     6.579267  C  
atom     2.536410    -0.731225     7.792150  C  
atom     3.225466     1.402593     4.170596  C  
atom     3.462622    -0.732465     2.935883  C  
atom     2.997424     2.083627     5.366384  C  
atom     2.536410     2.083627     7.792150  C  
atom     2.308370    -0.050194     8.987932  C  
atom     2.536155    -1.823523     7.792735  H  
atom     3.462622     2.084866     2.935883  C  
atom     3.685632    -0.037374     1.775893  C  
atom     3.463547    -1.823691     2.937906  H  
atom     2.997680     3.175924     5.365798  H  
atom     2.536155     3.175924     7.792736  H  
atom     2.308369     1.402593     8.987938  C  
atom     2.071211    -0.732465    10.222651  C  
atom     3.463542     3.176095     2.937904  H  
atom     3.685631     1.389774     1.775892  C  
atom     3.867207    -0.572739     0.843764  H  
atom     2.071212     2.084866    10.222651  C  
atom     1.848202    -0.037374    11.382640  C  
atom     2.070287    -1.823691    10.220628  H  
atom     3.867208     1.925136     0.843760  H  
atom     2.070292     3.176095    10.220629  H  
atom     1.848202     1.389774    11.382641  C  
atom     1.666627    -0.572739    12.314770  H  
atom     1.666625     1.925136    12.314775  H  
#######  END  STRUCTURE #######

####### BEGIN STRUCTURE #######
#structure_number = 9
#Z = 2
#number_of_atoms_in_molecule = 30 
#unit_cell_volume = 607.564331 cubic Angstrom
#attempted_spacegroup = 6
#attempted_wyckoff_position = 2c
#site_symmetry_group = 1
#SPGLIB_detected_spacegroup = 6
#"All distances in Angstroms and using Cartesian coordinate system"
lattice_vector    12.731644     0.000000     0.000000 
lattice_vector     0.000000    14.895610     0.000000 
lattice_vector    -0.095552     0.000000     3.203683 
atom     9.166605     2.153458    -0.277738  C  
atom    10.382415     2.825443    -0.038675  C  
atom     9.180379     1.069700    -0.414229  H  
atom     7.949851     2.832230    -0.346201  C  
atom    10.363103     4.268909     0.141706  C  
atom    11.616424     2.147818     0.030865  C  
atom     7.930456     4.273712    -0.165148  C  
atom     6.711805     2.158441    -0.590446  C  
atom     9.129094     4.946535     0.072166  C  
atom    11.578913     4.940893     0.380768  C  
atom    12.815050     2.820637     0.268175  C  
atom    11.631397     1.064014    -0.105193  H  
atom     6.674277     4.953944    -0.240003  C  
atom     5.530862     2.851163    -0.653957  C  
atom     6.728417     1.075714    -0.726471  H  
atom     9.114121     6.030337     0.208223  H  
atom    11.565140     6.024651     0.517259  H  
atom    12.795668     4.262122     0.449230  C  
atom    14.071242     2.140408     0.343033  C  
atom     6.661580     6.036971    -0.106048  H  
atom     5.511908     4.267292    -0.476688  C  
atom     4.596209     2.322480    -0.842246  H  
atom    14.033715     4.935911     0.693475  C  
atom    15.233609     2.827060     0.579719  C  
atom    14.083934     1.057384     0.209087  H  
atom     4.563254     4.801398    -0.534336  H  
atom    14.017102     6.018638     0.829502  H  
atom    15.214657     4.243188     0.756987  C  
atom    16.182249     2.292951     0.637362  H  
atom    16.149305     4.771872     0.945277  H  
atom     9.166605    12.742152    -0.277738  C  
atom    10.382415    12.070169    -0.038675  C  
atom     9.180379    13.825911    -0.414229  H  
atom     7.949851    12.063381    -0.346201  C  
atom    10.363103    10.626702     0.141706  C  
atom    11.616424    12.747794     0.030865  C  